c turning on binary mode checking
c parsing input formula with 202048 variables and 780980 clauses
c finished parsing, read 2205073 bytes from proof file
c detected empty clause; start verification via backward checking
c 4589 of 780980 clauses in core                            
c 1567 of 88628 lemmas in core using 59362 resolution steps
c 0 RAT lemmas in core; 269 redundant literals in core lemmas
s VERIFIED
c verification time: 1.042 seconds
